Welcome to the CBC MILP Solver 
Version: Trunk
Build Date: Apr 16 2020 

Starting solution of the Linear programming relaxation problem using Primal Simplex

Using Python-MIP package version 1.8.1
Machines:  4 Jobs:  4
Order: 
Job  0 : machine 0 ( 10 ) machine 3 ( 1 ) machine 2 ( 6 ) machine 1 ( 7 ) 
Job  1 : machine 0 ( 1 ) machine 3 ( 7 ) machine 1 ( 5 ) machine 2 ( 8 ) 
Job  2 : machine 3 ( 9 ) machine 2 ( 3 ) machine 1 ( 7 ) machine 0 ( 1 ) 
Job  3 : machine 1 ( 7 ) machine 3 ( 3 ) machine 0 ( 9 ) machine 2 ( 10 ) 
K:  44
Job  0 , e: machine  0 ( 0 ) machine  1 ( 17 ) machine  2 ( 11 ) machine  3 ( 10 ) 
Job  1 , e: machine  0 ( 0 ) machine  1 ( 8 ) machine  2 ( 13 ) machine  3 ( 1 ) 
Job  2 , e: machine  0 ( 19 ) machine  1 ( 12 ) machine  2 ( 9 ) machine  3 ( 0 ) 
Job  3 , e: machine  0 ( 10 ) machine  1 ( 0 ) machine  2 ( 19 ) machine  3 ( 7 ) 
Job  0 , f: machine  0 ( 14 ) machine  1 ( 0 ) machine  2 ( 7 ) machine  3 ( 13 ) 
Job  1 , f: machine  0 ( 20 ) machine  1 ( 8 ) machine  2 ( 0 ) machine  3 ( 13 ) 
Job  2 , f: machine  0 ( 0 ) machine  1 ( 1 ) machine  2 ( 8 ) machine  3 ( 11 ) 
Job  3 , f: machine  0 ( 10 ) machine  1 ( 22 ) machine  2 ( 0 ) machine  3 ( 19 ) 
EST and LST:
Job: 0 Machine: 0 EST: 0 LST: 20
Job: 0 Machine: 1 EST: 17 LST: 37
Job: 0 Machine: 2 EST: 11 LST: 31
Job: 0 Machine: 3 EST: 10 LST: 30
Job: 1 Machine: 0 EST: 0 LST: 23
Job: 1 Machine: 1 EST: 8 LST: 31
Job: 1 Machine: 2 EST: 13 LST: 36
Job: 1 Machine: 3 EST: 1 LST: 24
Job: 2 Machine: 0 EST: 19 LST: 43
Job: 2 Machine: 1 EST: 12 LST: 36
Job: 2 Machine: 2 EST: 9 LST: 33
Job: 2 Machine: 3 EST: 0 LST: 24
Job: 3 Machine: 0 EST: 10 LST: 25
Job: 3 Machine: 1 EST: 0 LST: 15
Job: 3 Machine: 2 EST: 19 LST: 34
Job: 3 Machine: 3 EST: 7 LST: 22
Order:
Job: 0 Machine: 0 = 0 
Job: 0 Machine: 1 = 3 
Job: 0 Machine: 2 = 2 
Job: 0 Machine: 3 = 1 
Job: 1 Machine: 0 = 0 
Job: 1 Machine: 1 = 2 
Job: 1 Machine: 2 = 3 
Job: 1 Machine: 3 = 1 
Job: 2 Machine: 0 = 3 
Job: 2 Machine: 1 = 2 
Job: 2 Machine: 2 = 1 
Job: 2 Machine: 3 = 0 
Job: 3 Machine: 0 = 2 
Job: 3 Machine: 1 = 0 
Job: 3 Machine: 2 = 3 
Job: 3 Machine: 3 = 1 
Distances:
Job 0, Machine 0 -> Machine 3: distance 10
Job 0, Machine 0 -> Machine 2: distance 11
Job 0, Machine 0 -> Machine 1: distance 17
Job 0, Machine 3 -> Machine 2: distance 1
Job 0, Machine 3 -> Machine 1: distance 7
Job 0, Machine 2 -> Machine 1: distance 6
Job 1, Machine 0 -> Machine 3: distance 1
Job 1, Machine 0 -> Machine 1: distance 8
Job 1, Machine 0 -> Machine 2: distance 13
Job 1, Machine 3 -> Machine 1: distance 7
Job 1, Machine 3 -> Machine 2: distance 12
Job 1, Machine 1 -> Machine 2: distance 5
Job 2, Machine 3 -> Machine 2: distance 9
Job 2, Machine 3 -> Machine 1: distance 12
Job 2, Machine 3 -> Machine 0: distance 19
Job 2, Machine 2 -> Machine 1: distance 3
Job 2, Machine 2 -> Machine 0: distance 10
Job 2, Machine 1 -> Machine 0: distance 7
Job 3, Machine 1 -> Machine 3: distance 7
Job 3, Machine 1 -> Machine 0: distance 10
Job 3, Machine 1 -> Machine 2: distance 19
Job 3, Machine 3 -> Machine 0: distance 3
Job 3, Machine 3 -> Machine 2: distance 12
Job 3, Machine 0 -> Machine 2: distance 9
McCormic linearization
19.0 13.0 7
14.0 13.0 7
19.0 19.0 10
10.0 7.0 7
7.0 1.0 9
[(0, 1), (1, 2), (0, 0), (2, 1), (1, 0)]
obj:  0.6000000000000001
solutions:  1
+ x(0,0) + 0.1x(1,0) 
C:  29.0
x(0,0) = 0.73	 x(0,1) = 22.00	 x(0,2) = 11.73	 x(0,3) = 10.73	 
x(1,0) = 2.73	 x(1,1) = 10.73	 x(1,2) = 15.73	 x(1,3) = 3.73	 
x(2,0) = 22.73	 x(2,1) = 15.73	 x(2,2) = 12.73	 x(2,3) = 3.73	 
x(3,0) = 10.00	 x(3,1) = 0.00	 x(3,2) = 19.00	 x(3,3) = 7.00	 
y(0,1,0) = 0.13	 y(1,0,0) = 0.87	 
y(0,2,0) = 0.64	 y(2,0,0) = 0.36	 
y(0,3,0) = 0.96	 y(3,0,0) = 0.04	 
y(1,2,0) = 0.48	 y(2,1,0) = 0.52	 
y(1,3,0) = 0.74	 y(3,1,0) = 0.26	 
y(2,3,0) = 0.00	 y(3,2,0) = 1.00	 
y(0,1,1) = 0.14	 y(1,0,1) = 0.86	 
y(0,2,1) = 0.03	 y(2,0,1) = 0.97	 
y(0,3,1) = 0.00	 y(3,0,1) = 1.00	 
y(1,2,1) = 0.34	 y(2,1,1) = 0.66	 
y(1,3,1) = 0.16	 y(3,1,1) = 0.84	 
y(2,3,1) = 0.00	 y(3,2,1) = 1.00	 
y(0,1,2) = 0.36	 y(1,0,2) = 0.64	 
y(0,2,2) = 0.39	 y(2,0,2) = 0.61	 
y(0,3,2) = 1.00	 y(3,0,2) = 0.00	 
y(1,2,2) = 0.00	 y(2,1,2) = 1.00	 
y(1,3,2) = 0.43	 y(3,1,2) = 0.57	 
y(2,3,2) = 0.85	 y(3,2,2) = 0.15	 
y(0,1,3) = 0.00	 y(1,0,3) = 1.00	 
y(0,2,3) = 0.09	 y(2,0,3) = 0.91	 
y(0,3,3) = 0.04	 y(3,0,3) = 0.96	 
y(1,2,3) = 0.28	 y(2,1,3) = 0.72	 
y(1,3,3) = 0.26	 y(3,1,3) = 0.74	 
y(2,3,3) = 0.25	 y(3,2,3) = 0.75	 
22.0 15.727272727272732 7
15.727272727272727 12.72727272727273 3
10.727272727272725 3.727272727272727 7
obj:  0.9174311926605506
solutions:  1
+ 0.09174311926605493x(0,0) + 0.08256880733944956x(3,0) + 0.009174311926605498x(1,0) 
[(0, 1), (0, 0), (3, 0), (2, 1), (1, 0)]
cliques:  1 mip: 97
C:  29.0
x(0,0) = 1.82	 x(0,1) = 22.00	 x(0,2) = 12.82	 x(0,3) = 11.82	 
x(1,0) = 0.82	 x(1,1) = 8.82	 x(1,2) = 13.82	 x(1,3) = 1.82	 
x(2,0) = 22.33	 x(2,1) = 15.33	 x(2,2) = 12.33	 x(2,3) = 3.33	 
x(3,0) = 10.00	 x(3,1) = 0.00	 x(3,2) = 19.00	 x(3,3) = 7.00	 
y(0,1,0) = 0.00	 y(1,0,0) = 1.00	 
y(0,2,0) = 0.68	 y(2,0,0) = 0.32	 
y(0,3,0) = 0.91	 y(3,0,0) = 0.09	 
y(1,2,0) = 0.51	 y(2,1,0) = 0.49	 
y(1,3,0) = 0.66	 y(3,1,0) = 0.34	 
y(2,3,0) = 0.00	 y(3,2,0) = 1.00	 
y(0,1,1) = 0.11	 y(1,0,1) = 0.89	 
y(0,2,1) = 0.01	 y(2,0,1) = 0.99	 
y(0,3,1) = 0.00	 y(3,0,1) = 1.00	 
y(1,2,1) = 0.39	 y(2,1,1) = 0.61	 
y(1,3,1) = 0.08	 y(3,1,1) = 0.92	 
y(2,3,1) = 0.00	 y(3,2,1) = 1.00	 
y(0,1,2) = 0.27	 y(1,0,2) = 0.73	 
y(0,2,2) = 0.29	 y(2,0,2) = 0.71	 
y(0,3,2) = 1.00	 y(3,0,2) = 0.00	 
y(1,2,2) = 0.51	 y(2,1,2) = 0.49	 
y(1,3,2) = 0.49	 y(3,1,2) = 0.51	 
y(2,3,2) = 0.83	 y(3,2,2) = 0.17	 
y(0,1,3) = 0.35	 y(1,0,3) = 0.65	 
y(0,2,3) = 0.02	 y(2,0,3) = 0.98	 
y(0,3,3) = 0.09	 y(3,0,3) = 0.91	 
y(1,2,3) = 0.33	 y(2,1,3) = 0.67	 
y(1,3,3) = 0.34	 y(3,1,3) = 0.66	 
y(2,3,3) = 0.27	 y(3,2,3) = 0.73	 
21.999999999999996 15.329809725158553 7
13.818181818181813 12.329809725158556 3
11.818181818181818 3.329809725158556 9
obj:  1.0000000000000002
erro
[(0, 1), (0, 0), (3, 0), (2, 1), (0, 2)]
cliques:  0 mip: 131
C:  28.999999999999996
x(0,0) = 1.10	 x(0,1) = 22.00	 x(0,2) = 16.00	 x(0,3) = 15.00	 
x(1,0) = 8.00	 x(1,1) = 16.00	 x(1,2) = 21.00	 x(1,3) = 9.00	 
x(2,0) = 22.00	 x(2,1) = 15.00	 x(2,2) = 12.00	 x(2,3) = 3.00	 
x(3,0) = 10.00	 x(3,1) = 0.00	 x(3,2) = 19.00	 x(3,3) = 7.00	 
y(0,1,0) = 0.58	 y(1,0,0) = 0.42	 
y(0,2,0) = 0.67	 y(2,0,0) = 0.33	 
y(0,3,0) = 0.53	 y(3,0,0) = 0.47	 
y(1,2,0) = 0.34	 y(2,1,0) = 0.66	 
y(1,3,0) = 0.96	 y(3,1,0) = 0.04	 
y(2,3,0) = 0.00	 y(3,2,0) = 1.00	 
y(0,1,1) = 0.39	 y(1,0,1) = 0.61	 
y(0,2,1) = 0.00	 y(2,0,1) = 1.00	 
y(0,3,1) = 0.00	 y(3,0,1) = 1.00	 
y(1,2,1) = 0.17	 y(2,1,1) = 0.83	 
y(1,3,1) = 0.37	 y(3,1,1) = 0.63	 
y(2,3,1) = 0.00	 y(3,2,1) = 1.00	 
y(0,1,2) = 0.39	 y(1,0,2) = 0.61	 
y(0,2,2) = 0.19	 y(2,0,2) = 0.81	 
y(0,3,2) = 0.83	 y(3,0,2) = 0.17	 
y(1,2,2) = 0.34	 y(2,1,2) = 0.66	 
y(1,3,2) = 0.37	 y(3,1,2) = 0.63	 
y(2,3,2) = 0.82	 y(3,2,2) = 0.18	 
y(0,1,3) = 0.39	 y(1,0,3) = 0.61	 
y(0,2,3) = 0.14	 y(2,0,3) = 0.86	 
y(0,3,3) = 0.23	 y(3,0,3) = 0.77	 
y(1,2,3) = 0.09	 y(2,1,3) = 0.91	 
y(1,3,3) = 0.04	 y(3,1,3) = 0.96	 
y(2,3,3) = 0.28	 y(3,2,3) = 0.72	 
15.999999999999996 14.999999999999998 7
20.999999999999996 19.0 10
15.0 8.999999999999996 7
8.999999999999996 3.0 9
obj:  0.950251256281407
solutions:  1
+ 0.005025125628140693x(0,0) + 0.09045226130653265x(3,0) + 0.00502512562814071x(1,0) 
[(0, 0), (3, 0), (2, 1), (1, 0), (1, 1)]
cliques:  1 mip: 83
C:  29.379069767441855
x(0,0) = 4.08	 x(0,1) = 21.08	 x(0,2) = 15.08	 x(0,3) = 14.08	 
x(1,0) = 8.10	 x(1,1) = 16.10	 x(1,2) = 21.10	 x(1,3) = 9.10	 
x(2,0) = 21.94	 x(2,1) = 14.94	 x(2,2) = 9.00	 x(2,3) = 0.00	 
x(3,0) = 10.38	 x(3,1) = 0.00	 x(3,2) = 19.38	 x(3,3) = 7.00	 
y(0,1,0) = 0.55	 y(1,0,0) = 0.45	 
y(0,2,0) = 0.46	 y(2,0,0) = 0.54	 
y(0,3,0) = 0.81	 y(3,0,0) = 0.19	 
y(1,2,0) = 0.79	 y(2,1,0) = 0.21	 
y(1,3,0) = 0.99	 y(3,1,0) = 0.01	 
y(2,3,0) = 0.00	 y(3,2,0) = 1.00	 
y(0,1,1) = 0.00	 y(1,0,1) = 1.00	 
y(0,2,1) = 0.10	 y(2,0,1) = 0.90	 
y(0,3,1) = 0.00	 y(3,0,1) = 1.00	 
y(1,2,1) = 0.48	 y(2,1,1) = 0.52	 
y(1,3,1) = 0.41	 y(3,1,1) = 0.59	 
y(2,3,1) = 0.00	 y(3,2,1) = 1.00	 
y(0,1,2) = 1.00	 y(1,0,2) = 0.00	 
y(0,2,2) = 0.00	 y(2,0,2) = 1.00	 
y(0,3,2) = 0.43	 y(3,0,2) = 0.57	 
y(1,2,2) = 0.32	 y(2,1,2) = 0.68	 
y(1,3,2) = 0.42	 y(3,1,2) = 0.58	 
y(2,3,2) = 0.66	 y(3,2,2) = 0.34	 
y(0,1,3) = 0.43	 y(1,0,3) = 0.57	 
y(0,2,3) = 0.24	 y(2,0,3) = 0.76	 
y(0,3,3) = 0.57	 y(3,0,3) = 0.43	 
y(1,2,3) = 0.00	 y(2,1,3) = 1.00	 
y(1,3,3) = 0.62	 y(3,1,3) = 0.38	 
y(2,3,3) = 0.57	 y(3,2,3) = 0.43	 
21.07906976744185 16.09767441860449 5
21.07906976744185 14.939746300211585 7
16.09767441860449 14.939746300211585 7
21.09767441860449 19.37906976744186 10
14.079069767441847 9.09767441860444 7
9.09767441860444 7.0 3
obj:  1.0000000000000002
erro
[(0, 1), (0, 0), (3, 0), (1, 0), (1, 1)]
cliques:  0 mip: 192
C:  29.999999999999996
x(0,0) = 1.81	 x(0,1) = 20.44	 x(0,2) = 14.08	 x(0,3) = 12.28	 
x(1,0) = 5.30	 x(1,1) = 14.57	 x(1,2) = 22.00	 x(1,3) = 7.57	 
x(2,0) = 22.28	 x(2,1) = 15.28	 x(2,2) = 12.28	 x(2,3) = 3.28	 
x(3,0) = 10.66	 x(3,1) = 0.00	 x(3,2) = 19.66	 x(3,3) = 7.00	 
y(0,1,0) = 0.30	 y(1,0,0) = 0.70	 
y(0,2,0) = 0.85	 y(2,0,0) = 0.15	 
y(0,3,0) = 0.94	 y(3,0,0) = 0.06	 
y(1,2,0) = 0.83	 y(2,1,0) = 0.17	 
y(1,3,0) = 0.85	 y(3,1,0) = 0.15	 
y(2,3,0) = 0.00	 y(3,2,0) = 1.00	 
y(0,1,1) = 0.05	 y(1,0,1) = 0.95	 
y(0,2,1) = 0.07	 y(2,0,1) = 0.93	 
y(0,3,1) = 0.00	 y(3,0,1) = 1.00	 
y(1,2,1) = 0.57	 y(2,1,1) = 0.43	 
y(1,3,1) = 0.34	 y(3,1,1) = 0.66	 
y(2,3,1) = 0.00	 y(3,2,1) = 1.00	 
y(0,1,2) = 1.00	 y(1,0,2) = 0.00	 
y(0,2,2) = 0.10	 y(2,0,2) = 0.90	 
y(0,3,2) = 0.97	 y(3,0,2) = 0.03	 
y(1,2,2) = 0.33	 y(2,1,2) = 0.67	 
y(1,3,2) = 0.59	 y(3,1,2) = 0.41	 
y(2,3,2) = 0.70	 y(3,2,2) = 0.30	 
y(0,1,3) = 0.22	 y(1,0,3) = 0.78	 
y(0,2,3) = 0.00	 y(2,0,3) = 1.00	 
y(0,3,3) = 0.08	 y(3,0,3) = 0.92	 
y(1,2,3) = 0.15	 y(2,1,3) = 0.85	 
y(1,3,3) = 0.68	 y(3,1,3) = 0.32	 
y(2,3,3) = 0.59	 y(3,2,3) = 0.41	 
20.441463207150964 15.283180596838202 7
14.078275467852578 12.283180596839701 3
22.000000000003816 19.660806305972145 10
12.283180596838392 7.574239720546872 7
7.574239720546872 3.2831805968397023 9
obj:  1.0000000000000002
erro
[(0, 1), (0, 0), (3, 0), (2, 1), (1, 0)]
cliques:  0 mip: 184
C:  29.999999999999996
x(0,0) = 2.09	 x(0,1) = 21.55	 x(0,2) = 13.40	 x(0,3) = 12.40	 
x(1,0) = 2.29	 x(1,1) = 10.29	 x(1,2) = 19.60	 x(1,3) = 3.29	 
x(2,0) = 22.03	 x(2,1) = 15.03	 x(2,2) = 11.33	 x(2,3) = 2.33	 
x(3,0) = 10.81	 x(3,1) = 0.00	 x(3,2) = 19.81	 x(3,3) = 7.00	 
y(0,1,0) = 0.67	 y(1,0,0) = 0.33	 
y(0,2,0) = 0.48	 y(2,0,0) = 0.52	 
y(0,3,0) = 0.93	 y(3,0,0) = 0.07	 
y(1,2,0) = 0.92	 y(2,1,0) = 0.08	 
y(1,3,0) = 0.52	 y(3,1,0) = 0.48	 
y(2,3,0) = 0.00	 y(3,2,0) = 1.00	 
y(0,1,1) = 0.01	 y(1,0,1) = 0.99	 
y(0,2,1) = 0.02	 y(2,0,1) = 0.98	 
y(0,3,1) = 0.00	 y(3,0,1) = 1.00	 
y(1,2,1) = 0.76	 y(2,1,1) = 0.24	 
y(1,3,1) = 0.43	 y(3,1,1) = 0.57	 
y(2,3,1) = 0.00	 y(3,2,1) = 1.00	 
y(0,1,2) = 1.00	 y(1,0,2) = 0.00	 
y(0,2,2) = 0.38	 y(2,0,2) = 0.62	 
y(0,3,2) = 0.99	 y(3,0,2) = 0.01	 
y(1,2,2) = 0.47	 y(2,1,2) = 0.53	 
y(1,3,2) = 0.33	 y(3,1,2) = 0.67	 
y(2,3,2) = 0.53	 y(3,2,2) = 0.47	 
y(0,1,3) = 0.25	 y(1,0,3) = 0.75	 
y(0,2,3) = 0.04	 y(2,0,3) = 0.96	 
y(0,3,3) = 0.11	 y(3,0,3) = 0.89	 
y(1,2,3) = 0.29	 y(2,1,3) = 0.71	 
y(1,3,3) = 0.86	 y(3,1,3) = 0.14	 
y(2,3,3) = 0.79	 y(3,2,3) = 0.21	 
21.554140605033833 15.027023302529816 7
13.404742518792839 11.334932338986638 3
3.2924071112234743 2.3349323389866394 9
obj:  1.0
erro
[(0, 1), (0, 0), (3, 0), (2, 1), (1, 0)]
cliques:  0 mip: 189
C:  29.999999999999993
x(0,0) = 1.42	 x(0,1) = 21.05	 x(0,2) = 13.64	 x(0,3) = 12.64	 
x(1,0) = 0.00	 x(1,1) = 8.48	 x(1,2) = 13.48	 x(1,3) = 1.48	 
x(2,0) = 22.72	 x(2,1) = 15.72	 x(2,2) = 12.72	 x(2,3) = 3.72	 
x(3,0) = 10.98	 x(3,1) = 0.43	 x(3,2) = 20.00	 x(3,3) = 7.43	 
y(0,1,0) = 0.09	 y(1,0,0) = 0.91	 
y(0,2,0) = 0.83	 y(2,0,0) = 0.17	 
y(0,3,0) = 0.98	 y(3,0,0) = 0.02	 
y(1,2,0) = 0.92	 y(2,1,0) = 0.08	 
y(1,3,0) = 0.59	 y(3,1,0) = 0.41	 
y(2,3,0) = 0.00	 y(3,2,0) = 1.00	 
y(0,1,1) = 0.38	 y(1,0,1) = 0.62	 
y(0,2,1) = 0.06	 y(2,0,1) = 0.94	 
y(0,3,1) = 0.00	 y(3,0,1) = 1.00	 
y(1,2,1) = 0.68	 y(2,1,1) = 0.32	 
y(1,3,1) = 0.49	 y(3,1,1) = 0.51	 
y(2,3,1) = 0.00	 y(3,2,1) = 1.00	 
y(0,1,2) = 0.74	 y(1,0,2) = 0.26	 
y(0,2,2) = 0.15	 y(2,0,2) = 0.85	 
y(0,3,2) = 1.00	 y(3,0,2) = -0.00	 
y(1,2,2) = 0.56	 y(2,1,2) = 0.44	 
y(1,3,2) = 0.92	 y(3,1,2) = 0.08	 
y(2,3,2) = 0.93	 y(3,2,2) = 0.07	 
y(0,1,3) = 0.00	 y(1,0,3) = 1.00	 
y(0,2,3) = 0.00	 y(2,0,3) = 1.00	 
y(0,3,3) = 0.14	 y(3,0,3) = 0.86	 
y(1,2,3) = 0.35	 y(2,1,3) = 0.65	 
y(1,3,3) = 0.82	 y(3,1,3) = 0.18	 
y(2,3,3) = 0.70	 y(3,2,3) = 0.30	 
21.054444574799355 15.72396918947993 7
13.639323557858852 13.47656039162 8
13.47656039162 12.723969189479932 3
12.639323557858852 3.7239691894799307 9
obj:  1.0976741485470984
erro
[(0, 1), (0, 0), (3, 0), (2, 1), (0, 2)]
cliques:  0 mip: 178
C:  30.000000000000004
x(0,0) = 1.00	 x(0,1) = 21.85	 x(0,2) = 14.00	 x(0,3) = 13.00	 
x(1,0) = 0.00	 x(1,1) = 8.00	 x(1,2) = 13.11	 x(1,3) = 1.00	 
x(2,0) = 22.94	 x(2,1) = 15.94	 x(2,2) = 12.94	 x(2,3) = 3.76	 
x(3,0) = 11.00	 x(3,1) = 0.74	 x(3,2) = 20.00	 x(3,3) = 7.74	 
y(0,1,0) = 0.32	 y(1,0,0) = 0.68	 
y(0,2,0) = 0.82	 y(2,0,0) = 0.18	 
y(0,3,0) = 0.98	 y(3,0,0) = 0.02	 
y(1,2,0) = 1.00	 y(2,1,0) = 0.00	 
y(1,3,0) = 1.00	 y(3,1,0) = -0.00	 
y(2,3,0) = 0.00	 y(3,2,0) = 1.00	 
y(0,1,1) = 0.00	 y(1,0,1) = 1.00	 
y(0,2,1) = 0.04	 y(2,0,1) = 0.96	 
y(0,3,1) = 0.00	 y(3,0,1) = 1.00	 
y(1,2,1) = 0.81	 y(2,1,1) = 0.19	 
y(1,3,1) = 0.44	 y(3,1,1) = 0.56	 
y(2,3,1) = 0.00	 y(3,2,1) = 1.00	 
y(0,1,2) = 0.58	 y(1,0,2) = 0.42	 
y(0,2,2) = 0.19	 y(2,0,2) = 0.81	 
y(0,3,2) = 1.00	 y(3,0,2) = 0.00	 
y(1,2,2) = 0.68	 y(2,1,2) = 0.32	 
y(1,3,2) = 0.94	 y(3,1,2) = 0.06	 
y(2,3,2) = 0.97	 y(3,2,2) = 0.03	 
y(0,1,3) = 0.23	 y(1,0,3) = 0.77	 
y(0,2,3) = 0.01	 y(2,0,3) = 0.99	 
y(0,3,3) = 0.26	 y(3,0,3) = 0.74	 
y(1,2,3) = 0.86	 y(2,1,3) = 0.14	 
y(1,3,3) = 0.74	 y(3,1,3) = 0.26	 
y(2,3,3) = 0.81	 y(3,2,3) = 0.19	 
0.9999999999999999 0.0 1
21.853285847145425 15.941201631874181 7
14.00000000000015 13.110378003115004 8
13.110378003115004 12.94120163187418 3
obj:  0.9999999999999999
erro
[(0, 1), (0, 0), (2, 1), (1, 0), (0, 2)]
cliques:  0 mip: 0
iterações: 8 cortes cliques encontrados: 3 mip: 1100 objective:  30.000000000000004
Coin0506I Presolve 157 (-171) rows, 90 (-71) columns and 490 (-260) elements
Clp1000I sum of infeasibilities 1.79124e-08 - average 1.14092e-10, 0 fixed columns
Coin0506I Presolve 157 (0) rows, 90 (0) columns and 490 (0) elements
Clp0029I End of values pass after 90 iterations
Clp0000I Optimal - objective value 29
Clp0000I Optimal - objective value 29
Coin0511I After Postsolve, objective 29, infeasibilities - dual 0 (0), primal 0 (0)
Clp0000I Optimal - objective value 29
Clp0000I Optimal - objective value 29
Clp0000I Optimal - objective value 29
Coin0511I After Postsolve, objective 29, infeasibilities - dual 0 (0), primal 0 (0)
Clp0032I Optimal objective 29 - 0 iterations time 0.012, Presolve 0.00, Idiot 0.01
Coin3009W Conflict graph built in 0.000 seconds, density: 0.072%
